language Essence 1.3

letting blksize_delta be function(1 --> 5, 2 --> 5, 3 --> 5, 4 --> 5, 5 --> 5, 6 --> 4, 7 --> 4)
letting maxcars be function(1 --> 10, 2 --> 10, 3 --> 10, 4 --> 10, 5 --> 10, 6 --> 10, 7 --> 10)
letting n_cars be 175
letting n_classes be 2
letting n_options be 7
letting quantity be function(1 --> 88, 2 --> 87)
letting usage be relation((1, 1), (1, 2), (1, 3), (1, 4), (1, 5), (1, 6), (2, 7))
$ Visualisation for usage
$ 1 1
$ 1 2
$ 1 3
$ 1 4
$ 1 5
$ 1 6
$ 2 7

